zaligvinder/models/all_counting_bench/automatarklen/automatark/instance8245.smt2
(set-logic QF_SLIA)
(set-option :produce-models true)
(declare-const X String)
; /\x2Fevil\x2Fservices\x2Fbid_register\x2Ephp\x3FBID\x3D[A-Za-z]{6}\u{26}IP\x3D\d{1,3}\x2E\d{1,3}\x2E\d{1,3}\x2E\d{1,3}\u{26}cipher\x3D[A-Za-z]{9}/smiU
(assert (not (str.in_re X (re.++ (str.to_re "//evil/services/bid_register.php?BID=") ((_ re.loop 6 6) (re.union (re.range "A" "Z") (re.range "a" "z"))) (str.to_re "&IP=") ((_ re.loop 1 3) (re.range "0" "9")) (str.to_re ".") ((_ re.loop 1 3) (re.range "0" "9")) (str.to_re ".") ((_ re.loop 1 3) (re.range "0" "9")) (str.to_re ".") ((_ re.loop 1 3) (re.range "0" "9")) (str.to_re "&cipher=") ((_ re.loop 9 9) (re.union (re.range "A" "Z") (re.range "a" "z"))) (str.to_re "/smiU\u{0a}")))))
; ^[+-]?[0-9]+$
(assert (str.in_re X (re.++ (re.opt (re.union (str.to_re "+") (str.to_re "-"))) (re.+ (re.range "0" "9")) (str.to_re "\u{0a}"))))
; /\x2Fmrow\x5Fpin\x2F\x3Fid\d+[a-z]{5,}\d{5}\u{26}rnd\x3D\d+/smi
(assert (not (str.in_re X (re.++ (str.to_re "//mrow_pin/?id") (re.+ (re.range "0" "9")) ((_ re.loop 5 5) (re.range "0" "9")) (str.to_re "&rnd=") (re.+ (re.range "0" "9")) (str.to_re "/smi\u{0a}") ((_ re.loop 5 5) (re.range "a" "z")) (re.* (re.range "a" "z"))))))
(assert (> (str.len X) 10))
(check-sat)
